p cnf 40 15
-16 -13 -14 -7866322458136164568 -37 37 13 14 16 7866322458136164568 0
 1 >(1-")05+;'4?7?" 0
-39 -4 7866322458136164568 4 39 3(9-?&/>5 0
 1 ?6)+959?40;9*<3$:5)6 0
-6 -34 -1 -7866322458136164568 -11 -37 -16 -3 -4 -14 -35 -13 -24 -33 1 33 3 35 4 6 37 34 11 13 14 16 24 7866322458136164568 0
-37 -14 -39 -6 14 37 6 39 0
-24 -3 -14 -37 -1 -7866322458136164568 -16 -34 -39 -11 -13 -4 -35 -33 1 34 3 35 4 6 33 39 37 11 13 14 16 24 7866322458136164568 0
-34 -39 -3 -24 -14 34 3 4 6 39 14 24  :.=+*"#&5?'!=.020=& 0
